========================================================== 
File name: C:\DEGR\assets\definitions\MSRCPSP_Gen\100_10_64_5_B.def
Creation date: Wed May 03 10:37:55 CEST 2023
Website: http://imopse.ii.pwr.edu.pl/ 
Reference: 
Myszkowski P. B., Skowronski M. E., Olech L., Oslizlo K., 
Hybrid Ant Colony Optimization in solving Multi-Skill Resource-Constrained Project Scheduling Problem, 
Soft Computing, DOI: DOI 10.1007/s00500-014-1455-x 
========================================================== 
General characteristics: 
Tasks: 100
Resources: 10
Precedence relations: 62
Number of skill types: 5
========================================================== 
ResourceID 	 Salary 	 Skills 
1	 	 	80.5	 	 Q3: 3 	  Q2: 2 	  Q0: 3 	 
2	 	 	77.9	 	 Q1: 0 	  Q0: 0 	  Q2: 0 	 
3	 	 	17.4	 	 Q2: 1 	  Q3: 3 	  Q0: 1 	  Q4: 1 	 
4	 	 	18.7	 	 Q0: 0 	  Q3: 1 	  Q1: 1 	  Q4: 2 	 
5	 	 	54.0	 	 Q0: 3 	  Q4: 3 	  Q2: 3 	  Q1: 0 	 
6	 	 	59.4	 	 Q3: 1 	  Q4: 2 	 
7	 	 	82.4	 	 Q1: 2 	  Q0: 1 	  Q3: 2 	 
8	 	 	17.3	 	 Q3: 0 	  Q1: 3 	  Q2: 2 	 
9	 	 	22.7	 	 Q1: 1 	  Q3: 0 	  Q4: 3 	 
10	 	 	31.2	 	 Q1: 0 	 
========================================================== 
TaskID 	 Duration 	 Skill 	 Predecessor IDs 
1	35	Q3:	3
2	19	Q2:	3
3	20	Q3:	0
4	23	Q3:	2
5	29	Q2:	1
6	31	Q3:	2
7	35	Q3:	2
8	12	Q1:	1
9	11	Q3:	0
10	17	Q3:	3
11	36	Q1:	3
12	17	Q3:	2
13	31	Q1:	3
14	33	Q3:	0
15	28	Q2:	1
16	21	Q3:	3
17	32	Q1:	0
18	32	Q2:	0	12
19	14	Q2:	3
20	10	Q4:	3
21	25	Q3:	0	3
22	31	Q4:	1
23	21	Q2:	0
24	17	Q4:	1
25	12	Q1:	3
26	30	Q3:	1
27	36	Q1:	2
28	33	Q2:	3
29	25	Q4:	1
30	30	Q2:	2	18
31	30	Q1:	2
32	20	Q0:	0	27	6
33	40	Q4:	2	4
34	27	Q4:	3
35	30	Q1:	1
36	29	Q3:	1	8	5	15
37	20	Q3:	2
38	33	Q2:	3
39	24	Q0:	1	21
40	36	Q3:	3
41	15	Q1:	1	3
42	29	Q1:	0
43	22	Q3:	0	29
44	34	Q2:	0
45	9	Q2:	0
46	16	Q0:	1
47	26	Q1:	3
48	28	Q2:	2	9
49	35	Q1:	3	8	26	6
50	21	Q0:	0
51	31	Q3:	2
52	23	Q1:	2	28
53	24	Q0:	3	3	13
54	16	Q3:	2	51
55	24	Q3:	3
56	36	Q4:	2	5	24
57	37	Q3:	0
58	19	Q4:	2	5	7
59	18	Q2:	0	9
60	32	Q2:	2	32
61	27	Q4:	3
62	17	Q2:	3
63	18	Q1:	3
64	34	Q1:	1
65	12	Q3:	3
66	39	Q4:	3
67	14	Q1:	2
68	9	Q4:	3	65
69	15	Q3:	3	41
70	19	Q4:	1
71	29	Q1:	2	2
72	18	Q4:	2	19	23	67
73	12	Q0:	1	20
74	40	Q0:	1
75	9	Q1:	2	7
76	15	Q2:	3	70
77	40	Q3:	0	6
78	21	Q0:	1	24
79	39	Q0:	0	30
80	36	Q3:	1	76
81	26	Q4:	1
82	9	Q2:	3	14
83	25	Q3:	3
84	38	Q2:	3	73	11	83
85	22	Q4:	3
86	36	Q0:	1
87	25	Q0:	0
88	20	Q4:	1
89	26	Q0:	1	74	64	36	61
90	31	Q3:	0
91	15	Q1:	1
92	34	Q1:	1	64	44	39
93	18	Q1:	0	72
94	38	Q4:	2
95	27	Q4:	3	37	71
96	24	Q0:	0	89	19	16
97	34	Q1:	1	49	60	22	85
98	22	Q4:	2	90
99	28	Q2:	2
100	37	Q1:	1	37
========================================================== 